\ LP format - for model browsing. Use MPS format to capture full model detail.
Maximize
obj:   x[1] + x[96] + x[64] + x[162] + x[68] + x[69] + x[8] + x[18] + x[110]
   + x[47] + x[112] + x[50] + x[84] + x[142] + x[86] + x[59] + x[28]
   + x[61] + x[101] + x[2] + x[32] + x[35] + x[166] + x[40] + x[105]
   + x[74] + x[171] + x[131] + x[54] + x[137] + x[56] + x[25] + x[151]
   + x[3] + x[4] + x[134] + x[136] + x[21] + x[22] + x[152] + x[153]
   + x[156] + x[33] + x[168] + x[170] + x[174] + x[175] + x[53] + x[55]
   + x[63] + x[65] + x[161] + x[93] + x[94] + x[100] + x[106] + x[119]
   + x[10] + x[173] + x[149] + x[155] + x[37] + x[39] + x[43] + x[45]
   + x[49] + x[138] + x[73] + x[76] + x[77] + x[87] + x[91] + x[114] + x[5]
   + x[160] + x[66] + x[123] + x[165] + x[29] + x[13] + x[146] + x[148]
   + x[52] + x[154] + x[157] + x[6] + x[172] + x[140] + x[14] + x[15]
   + x[144] + x[159] + x[44] + x[79] + x[85] + x[90] + x[143] + x[104]
   + x[120] + x[7] + x[62] + x[16] + x[88] + x[127] + x[158] + x[11]
   + x[147] + x[38] + x[42] + x[51] + x[60] + x[70] + x[83] + x[108]
   + x[113] + x[117] + x[125] + x[126] + x[9] + x[24] + x[58] + x[31]
   + x[141] + x[111] + x[80] + x[145] + x[27] + x[124] + x[36] + x[75]
   + x[57] + x[12] + x[129] + x[78] + x[67] + x[92] + x[128] + x[139]
   + x[107] + x[20] + x[23] + x[102] + x[103] + x[46] + x[17] + x[48]
   + x[132] + x[34] + x[71] + x[19] + x[97] + x[169] + x[81] + x[72]
   + x[133] + x[82] + x[167] + x[99] + x[109] + x[130] + x[121] + x[95]
   + x[30] + x[163] + x[135] + x[89] + x[26] + x[150] + x[122] + x[164]
   + x[118] + x[98] + x[115] + x[41] + x[116]
Subject To
 nod1: 18 x[1] + x[96] + x[64] + x[162] + x[68] + x[69] + x[8] + x[18]
   + x[110] + x[47] + x[112] + x[50] + x[84] + x[142] + x[86] + x[59]
   + x[28] + x[61] + x[101] <= 18
 nod96: x[1] + 16 x[96] + x[69] + x[3] + x[63] + x[10] + x[149] + x[49]
   + x[90] + x[127] + x[9] + x[124] + x[67] + x[128] + x[132] + x[167]
   + x[163] <= 16
 nod64: x[1] + 14 x[64] + x[8] + x[47] + x[106] + x[10] + x[149] + x[90]
   + x[113] + x[117] + x[48] + x[97] + x[81] + x[72] + x[130] <= 14
 nod162: x[1] + 12 x[162] + x[40] + x[3] + x[134] + x[93] + x[155] + x[44]
   + x[143] + x[158] + x[83] + x[128] + x[82] <= 12
 nod68: x[1] + 16 x[68] + x[8] + x[112] + x[4] + x[174] + x[55] + x[65]
   + x[146] + x[104] + x[111] + x[78] + x[107] + x[46] + x[19] + x[82]
   + x[135] <= 16
 nod69: x[1] + x[96] + 12 x[69] + x[32] + x[53] + x[39] + x[15] + x[159]
   + x[11] + x[24] + x[23] + x[34] + x[118] <= 12
 nod8: x[1] + x[64] + x[68] + 24 x[8] + x[142] + x[25] + x[168] + x[161]
   + x[43] + x[123] + x[157] + x[172] + x[11] + x[147] + x[38] + x[42]
   + x[51] + x[60] + x[70] + x[83] + x[108] + x[113] + x[117] + x[125]
   + x[126] <= 24
 nod18: x[1] + 23 x[18] + x[28] + x[151] + x[3] + x[4] + x[134] + x[22]
   + x[168] + x[63] + x[149] + x[165] + x[29] + x[44] + x[79] + x[120]
   + x[11] + x[9] + x[75] + x[20] + x[17] + x[132] + x[34] + x[71] <= 23
 nod110: x[1] + 18 x[110] + x[84] + x[86] + x[56] + x[149] + x[155] + x[87]
   + x[91] + x[172] + x[85] + x[11] + x[60] + x[9] + x[80] + x[78] + x[67]
   + x[107] + x[81] <= 18
 nod47: x[1] + x[64] + 17 x[47] + x[84] + x[59] + x[2] + x[105] + x[171]
   + x[94] + x[106] + x[140] + x[125] + x[124] + x[17] + x[48] + x[95]
   + x[135] + x[89] <= 17
 nod112: x[1] + x[68] + 20 x[112] + x[84] + x[101] + x[105] + x[4] + x[152]
   + x[174] + x[93] + x[5] + x[146] + x[159] + x[85] + x[113] + x[31]
   + x[139] + x[167] + x[99] + x[109] + x[163] <= 20
 nod50: x[1] + 12 x[50] + x[151] + x[21] + x[153] + x[174] + x[63] + x[94]
   + x[149] + x[113] + x[78] + x[167] + x[30] <= 12
 nod84: x[1] + x[110] + x[47] + x[112] + 18 x[84] + x[134] + x[136] + x[93]
   + x[119] + x[43] + x[87] + x[91] + x[154] + x[140] + x[90] + x[158]
   + x[70] + x[109] + x[118] <= 18
 nod142: x[1] + x[8] + 18 x[142] + x[86] + x[21] + x[152] + x[33] + x[5]
   + x[123] + x[165] + x[146] + x[85] + x[143] + x[38] + x[103] + x[132]
   + x[30] + x[89] + x[164] <= 18
 nod86: x[1] + x[110] + x[142] + 22 x[86] + x[40] + x[25] + x[151] + x[63]
   + x[94] + x[138] + x[123] + x[154] + x[172] + x[104] + x[117] + x[31]
   + x[67] + x[92] + x[132] + x[71] + x[19] + x[95] + x[118] <= 22
 nod59: x[1] + x[47] + 15 x[59] + x[171] + x[153] + x[55] + x[106] + x[29]
   + x[104] + x[120] + x[145] + x[139] + x[107] + x[102] + x[72] + x[150]
   <= 15
 nod28: x[1] + x[18] + 12 x[28] + x[174] + x[149] + x[49] + x[88] + x[70]
   + x[145] + x[78] + x[30] + x[163] + x[26] <= 12
 nod61: x[1] + 14 x[61] + x[56] + x[159] + x[7] + x[127] + x[147] + x[128]
   + x[23] + x[17] + x[71] + x[167] + x[99] + x[30] + x[122] <= 14
 nod101: x[1] + x[112] + 18 x[101] + x[21] + x[174] + x[149] + x[49]
   + x[160] + x[66] + x[123] + x[157] + x[120] + x[67] + x[109] + x[135]
   + x[26] + x[164] + x[98] + x[41] <= 18
 nod2: x[47] + 14 x[2] + x[32] + x[35] + x[166] + x[40] + x[105] + x[74]
   + x[171] + x[131] + x[54] + x[137] + x[56] + x[25] + x[151] <= 14
 nod32: x[69] + x[2] + 16 x[32] + x[4] + x[106] + x[119] + x[45] + x[66]
   + x[29] + x[146] + x[159] + x[85] + x[70] + x[67] + x[17] + x[163]
   + x[150] <= 16
 nod35: x[2] + 15 x[35] + x[40] + x[171] + x[134] + x[136] + x[152]
   + x[168] + x[65] + x[76] + x[146] + x[14] + x[70] + x[108] + x[31]
   + x[19] <= 15
 nod166: x[2] + 13 x[166] + x[3] + x[175] + x[161] + x[37] + x[45] + x[165]
   + x[52] + x[141] + x[111] + x[128] + x[102] + x[122] <= 13
 nod40: x[162] + x[86] + x[2] + x[35] + 11 x[40] + x[174] + x[87] + x[143]
   + x[145] + x[124] + x[72] + x[98] <= 11
 nod105: x[47] + x[112] + x[2] + 20 x[105] + x[156] + x[94] + x[119]
   + x[45] + x[76] + x[159] + x[85] + x[62] + x[16] + x[11] + x[141]
   + x[78] + x[169] + x[135] + x[26] + x[150] + x[41] <= 20
 nod74: x[2] + 11 x[74] + x[106] + x[73] + x[76] + x[123] + x[29] + x[62]
   + x[141] + x[111] + x[67] + x[163] <= 11
 nod171: x[47] + x[59] + x[2] + x[35] + 22 x[171] + x[131] + x[54] + x[21]
   + x[114] + x[148] + x[140] + x[143] + x[104] + x[120] + x[42] + x[125]
   + x[9] + x[27] + x[12] + x[139] + x[30] + x[135] + x[122] <= 22
 nod131: x[2] + x[171] + 16 x[131] + x[55] + x[119] + x[87] + x[157]
   + x[172] + x[70] + x[126] + x[23] + x[48] + x[34] + x[133] + x[135]
   + x[150] + x[115] <= 16
 nod54: x[2] + x[171] + 20 x[54] + x[21] + x[22] + x[168] + x[155] + x[39]
   + x[87] + x[66] + x[159] + x[85] + x[147] + x[70] + x[108] + x[9]
   + x[78] + x[92] + x[103] + x[26] + x[41] <= 20
 nod137: x[2] + 10 x[137] + x[174] + x[138] + x[7] + x[62] + x[125] + x[24]
   + x[31] + x[107] + x[26] <= 10
 nod56: x[110] + x[61] + x[2] + 14 x[56] + x[22] + x[175] + x[63] + x[66]
   + x[127] + x[42] + x[75] + x[78] + x[107] + x[169] + x[130] <= 14
 nod25: x[8] + x[86] + x[2] + 18 x[25] + x[151] + x[175] + x[161] + x[146]
   + x[104] + x[88] + x[51] + x[113] + x[124] + x[92] + x[20] + x[103]
   + x[163] + x[135] + x[89] <= 18
 nod151: x[18] + x[50] + x[86] + x[2] + x[25] + 24 x[151] + x[152] + x[156]
   + x[63] + x[49] + x[146] + x[104] + x[16] + x[9] + x[58] + x[80]
   + x[124] + x[67] + x[34] + x[133] + x[130] + x[121] + x[95] + x[30]
   + x[163] <= 24
 nod3: x[96] + x[162] + x[18] + x[166] + 27 x[3] + x[4] + x[134] + x[136]
   + x[21] + x[22] + x[152] + x[153] + x[156] + x[33] + x[168] + x[170]
   + x[174] + x[175] + x[53] + x[55] + x[63] + x[65] + x[161] + x[93]
   + x[94] + x[100] + x[106] + x[119] <= 27
 nod4: x[68] + x[18] + x[112] + x[32] + x[3] + 23 x[4] + x[136] + x[174]
   + x[10] + x[173] + x[149] + x[155] + x[37] + x[39] + x[43] + x[45]
   + x[49] + x[138] + x[73] + x[76] + x[77] + x[87] + x[91] + x[114] <= 23
 nod134: x[162] + x[18] + x[84] + x[35] + x[3] + 13 x[134] + x[153] + x[45]
   + x[160] + x[62] + x[127] + x[102] + x[133] + x[95] <= 13
 nod136: x[84] + x[35] + x[3] + x[4] + 16 x[136] + x[153] + x[174] + x[43]
   + x[11] + x[51] + x[108] + x[117] + x[9] + x[128] + x[48] + x[26]
   + x[98] <= 16
 nod21: x[50] + x[142] + x[101] + x[171] + x[54] + x[3] + 15 x[21] + x[123]
   + x[52] + x[90] + x[11] + x[51] + x[126] + x[36] + x[72] + x[133] <= 15
 nod22: x[18] + x[54] + x[56] + x[3] + 20 x[22] + x[173] + x[43] + x[114]
   + x[66] + x[165] + x[140] + x[143] + x[127] + x[70] + x[92] + x[71]
   + x[82] + x[167] + x[99] + x[109] + x[130] <= 20
 nod152: x[112] + x[142] + x[35] + x[151] + x[3] + 18 x[152] + x[49]
   + x[160] + x[123] + x[154] + x[144] + x[120] + x[141] + x[80] + x[57]
   + x[67] + x[34] + x[169] + x[41] <= 18
 nod153: x[50] + x[59] + x[3] + x[134] + x[136] + 18 x[153] + x[33]
   + x[168] + x[63] + x[119] + x[91] + x[157] + x[15] + x[143] + x[31]
   + x[124] + x[139] + x[89] + x[122] <= 18
 nod156: x[105] + x[151] + x[3] + 16 x[156] + x[123] + x[148] + x[44]
   + x[83] + x[12] + x[103] + x[48] + x[167] + x[99] + x[89] + x[26]
   + x[41] + x[116] <= 16
 nod33: x[142] + x[3] + x[153] + 18 x[33] + x[53] + x[65] + x[119] + x[173]
   + x[77] + x[165] + x[146] + x[85] + x[117] + x[129] + x[78] + x[67]
   + x[130] + x[89] + x[26] <= 18
 nod168: x[8] + x[18] + x[35] + x[54] + x[3] + x[153] + 21 x[168] + x[63]
   + x[138] + x[77] + x[91] + x[66] + x[123] + x[29] + x[120] + x[88]
   + x[127] + x[78] + x[67] + x[139] + x[103] + x[26] <= 21
 nod170: x[3] + 13 x[170] + x[175] + x[65] + x[106] + x[5] + x[160] + x[44]
   + x[16] + x[11] + x[83] + x[129] + x[78] + x[97] <= 13
 nod174: x[68] + x[112] + x[50] + x[28] + x[101] + x[40] + x[137] + x[3]
   + x[4] + x[136] + 28 x[174] + x[173] + x[138] + x[146] + x[79] + x[7]
   + x[11] + x[147] + x[42] + x[83] + x[9] + x[24] + x[80] + x[36] + x[132]
   + x[99] + x[121] + x[122] + x[41] <= 28
 nod175: x[166] + x[56] + x[25] + x[3] + x[170] + 18 x[175] + x[76] + x[91]
   + x[5] + x[160] + x[66] + x[104] + x[11] + x[147] + x[12] + x[20]
   + x[135] + x[26] + x[41] <= 18
 nod53: x[69] + x[3] + x[33] + 17 x[53] + x[155] + x[160] + x[154] + x[14]
   + x[7] + x[158] + x[113] + x[9] + x[124] + x[67] + x[23] + x[48]
   + x[109] + x[116] <= 17
 nod55: x[68] + x[59] + x[131] + x[3] + 22 x[55] + x[10] + x[149] + x[39]
   + x[138] + x[77] + x[165] + x[52] + x[60] + x[117] + x[124] + x[67]
   + x[20] + x[102] + x[132] + x[34] + x[72] + x[163] + x[135] <= 22
 nod63: x[96] + x[18] + x[50] + x[86] + x[56] + x[151] + x[3] + x[153]
   + x[168] + 17 x[63] + x[154] + x[6] + x[79] + x[58] + x[31] + x[139]
   + x[135] + x[122] <= 17
 nod65: x[68] + x[35] + x[3] + x[33] + x[170] + 21 x[65] + x[106] + x[119]
   + x[43] + x[91] + x[160] + x[165] + x[146] + x[154] + x[79] + x[127]
   + x[141] + x[67] + x[48] + x[34] + x[169] + x[82] <= 21
 nod161: x[8] + x[166] + x[25] + x[3] + 26 x[161] + x[100] + x[106]
   + x[173] + x[155] + x[91] + x[146] + x[148] + x[172] + x[38] + x[141]
   + x[36] + x[57] + x[129] + x[67] + x[92] + x[128] + x[34] + x[81]
   + x[163] + x[122] + x[164] + x[116] <= 26
 nod93: x[162] + x[112] + x[84] + x[3] + 15 x[93] + x[173] + x[149] + x[66]
   + x[154] + x[51] + x[24] + x[31] + x[80] + x[139] + x[81] + x[116]
   <= 15
 nod94: x[47] + x[50] + x[86] + x[105] + x[3] + 15 x[94] + x[39] + x[148]
   + x[14] + x[79] + x[143] + x[88] + x[125] + x[19] + x[163] + x[115]
   <= 15
 nod100: x[3] + x[161] + 15 x[100] + x[45] + x[49] + x[160] + x[143]
   + x[88] + x[108] + x[125] + x[141] + x[12] + x[78] + x[99] + x[95]
   + x[122] <= 15
 nod106: x[64] + x[47] + x[59] + x[32] + x[74] + x[3] + x[170] + x[65]
   + x[161] + 19 x[106] + x[119] + x[138] + x[77] + x[5] + x[52] + x[154]
   + x[7] + x[70] + x[58] + x[145] <= 19
 nod119: x[84] + x[32] + x[105] + x[131] + x[3] + x[153] + x[33] + x[65]
   + x[106] + 23 x[119] + x[77] + x[91] + x[6] + x[51] + x[70] + x[57]
   + x[129] + x[102] + x[132] + x[167] + x[109] + x[30] + x[26] + x[150]
   <= 23
 nod10: x[96] + x[64] + x[4] + x[55] + 15 x[10] + x[52] + x[159] + x[60]
   + x[9] + x[31] + x[141] + x[111] + x[80] + x[145] + x[27] + x[124]
   <= 15
 nod173: x[4] + x[22] + x[33] + x[174] + x[161] + x[93] + 17 x[173]
   + x[155] + x[73] + x[76] + x[114] + x[140] + x[60] + x[145] + x[103]
   + x[97] + x[89] + x[98] <= 17
 nod149: x[96] + x[64] + x[18] + x[110] + x[50] + x[28] + x[101] + x[4]
   + x[55] + x[93] + 19 x[149] + x[76] + x[79] + x[158] + x[83] + x[31]
   + x[27] + x[81] + x[167] + x[150] <= 19
 nod155: x[162] + x[110] + x[54] + x[4] + x[53] + x[161] + x[173]
   + 23 x[155] + x[66] + x[123] + x[15] + x[85] + x[120] + x[16] + x[125]
   + x[9] + x[12] + x[78] + x[103] + x[34] + x[72] + x[109] + x[30] + x[26]
   <= 23
 nod37: x[166] + x[4] + 9 x[37] + x[146] + x[154] + x[129] + x[128]
   + x[132] + x[99] + x[89] <= 9
 nod39: x[69] + x[54] + x[4] + x[55] + x[94] + 21 x[39] + x[138] + x[87]
   + x[160] + x[52] + x[6] + x[172] + x[120] + x[127] + x[42] + x[108]
   + x[75] + x[128] + x[107] + x[20] + x[98] + x[115] <= 21
 nod43: x[8] + x[84] + x[4] + x[136] + x[22] + x[65] + 20 x[43] + x[45]
   + x[76] + x[154] + x[88] + x[70] + x[117] + x[58] + x[141] + x[80]
   + x[67] + x[20] + x[167] + x[135] + x[118] <= 20
 nod45: x[32] + x[166] + x[105] + x[4] + x[134] + x[100] + x[43] + 22 x[45]
   + x[146] + x[140] + x[38] + x[60] + x[70] + x[83] + x[117] + x[125]
   + x[67] + x[81] + x[133] + x[99] + x[135] + x[150] + x[116] <= 22
 nod49: x[96] + x[28] + x[101] + x[151] + x[4] + x[152] + x[100] + 22 x[49]
   + x[87] + x[91] + x[148] + x[144] + x[44] + x[158] + x[83] + x[9]
   + x[139] + x[107] + x[48] + x[19] + x[81] + x[26] + x[116] <= 22
 nod138: x[86] + x[137] + x[4] + x[168] + x[174] + x[55] + x[106] + x[39]
   + 17 x[138] + x[148] + x[44] + x[158] + x[117] + x[111] + x[78] + x[169]
   + x[164] + x[98] <= 17
 nod73: x[74] + x[4] + x[173] + 10 x[73] + x[165] + x[140] + x[42] + x[145]
   + x[57] + x[99] + x[118] <= 10
 nod76: x[35] + x[105] + x[74] + x[4] + x[175] + x[173] + x[149] + x[43]
   + 18 x[76] + x[77] + x[5] + x[7] + x[127] + x[83] + x[57] + x[129]
   + x[46] + x[71] + x[169] <= 18
 nod77: x[4] + x[33] + x[168] + x[55] + x[106] + x[119] + x[76] + 15 x[77]
   + x[29] + x[157] + x[120] + x[16] + x[38] + x[70] + x[113] + x[122]
   <= 15
 nod87: x[110] + x[84] + x[40] + x[131] + x[54] + x[4] + x[39] + x[49]
   + 18 x[87] + x[13] + x[157] + x[6] + x[139] + x[107] + x[48] + x[71]
   + x[169] + x[30] + x[164] <= 18
 nod91: x[110] + x[84] + x[4] + x[153] + x[168] + x[175] + x[65] + x[161]
   + x[119] + x[49] + 18 x[91] + x[5] + x[88] + x[83] + x[141] + x[124]
   + x[23] + x[103] + x[116] <= 18
 nod114: x[171] + x[4] + x[22] + x[173] + 15 x[114] + x[13] + x[140]
   + x[44] + x[108] + x[9] + x[24] + x[34] + x[97] + x[130] + x[95] + x[26]
   <= 15
 nod5: x[112] + x[142] + x[170] + x[175] + x[106] + x[76] + x[91] + 18 x[5]
   + x[160] + x[66] + x[123] + x[165] + x[29] + x[13] + x[146] + x[148]
   + x[52] + x[154] + x[157] <= 18
 nod160: x[101] + x[134] + x[152] + x[170] + x[175] + x[53] + x[65]
   + x[100] + x[39] + x[5] + 19 x[160] + x[6] + x[85] + x[120] + x[42]
   + x[31] + x[12] + x[46] + x[135] + x[164] <= 19
 nod66: x[101] + x[32] + x[54] + x[56] + x[22] + x[168] + x[175] + x[93]
   + x[155] + x[5] + 28 x[66] + x[157] + x[140] + x[14] + x[7] + x[16]
   + x[88] + x[141] + x[111] + x[80] + x[145] + x[107] + x[23] + x[132]
   + x[72] + x[30] + x[26] + x[164] + x[41] <= 28
 nod123: x[8] + x[142] + x[86] + x[101] + x[74] + x[21] + x[152] + x[156]
   + x[168] + x[155] + x[5] + 20 x[123] + x[148] + x[159] + x[11] + x[42]
   + x[117] + x[126] + x[169] + x[99] + x[130] <= 20
 nod165: x[18] + x[142] + x[166] + x[22] + x[33] + x[55] + x[65] + x[73]
   + x[5] + 19 x[165] + x[52] + x[6] + x[172] + x[14] + x[90] + x[42]
   + x[124] + x[139] + x[19] + x[135] <= 19
 nod29: x[18] + x[59] + x[32] + x[74] + x[168] + x[77] + x[5] + 11 x[29]
   + x[144] + x[88] + x[158] + x[17] <= 11
 nod13: x[87] + x[114] + x[5] + 9 x[13] + x[157] + x[113] + x[9] + x[141]
   + x[67] + x[92] <= 9
 nod146: x[68] + x[112] + x[142] + x[32] + x[35] + x[25] + x[151] + x[33]
   + x[174] + x[65] + x[161] + x[37] + x[45] + x[5] + 20 x[146] + x[159]
   + x[120] + x[16] + x[88] + x[169] + x[72] <= 20
 nod148: x[171] + x[156] + x[161] + x[94] + x[49] + x[138] + x[5] + x[123]
   + 18 x[148] + x[6] + x[159] + x[127] + x[108] + x[67] + x[128] + x[139]
   + x[23] + x[103] + x[17] <= 18
 nod52: x[166] + x[21] + x[55] + x[106] + x[10] + x[39] + x[5] + x[165]
   + 18 x[52] + x[6] + x[104] + x[62] + x[117] + x[24] + x[75] + x[67]
   + x[17] + x[135] + x[116] <= 18
 nod154: x[84] + x[86] + x[152] + x[53] + x[63] + x[65] + x[93] + x[106]
   + x[37] + x[43] + x[5] + 18 x[154] + x[104] + x[126] + x[24] + x[128]
   + x[17] + x[163] + x[26] <= 18
 nod157: x[8] + x[101] + x[131] + x[153] + x[77] + x[87] + x[5] + x[66]
   + x[13] + 15 x[157] + x[6] + x[85] + x[126] + x[102] + x[169] + x[121]
   <= 15
 nod6: x[63] + x[119] + x[39] + x[87] + x[160] + x[165] + x[148] + x[52]
   + x[157] + 22 x[6] + x[172] + x[140] + x[14] + x[15] + x[144] + x[159]
   + x[44] + x[79] + x[85] + x[90] + x[143] + x[104] + x[120] <= 22
 nod172: x[8] + x[110] + x[86] + x[131] + x[161] + x[39] + x[165] + x[6]
   + 21 x[172] + x[14] + x[38] + x[83] + x[108] + x[58] + x[80] + x[27]
   + x[128] + x[23] + x[97] + x[109] + x[121] + x[95] <= 21
 nod140: x[47] + x[84] + x[171] + x[22] + x[173] + x[45] + x[73] + x[114]
   + x[66] + x[6] + 21 x[140] + x[85] + x[88] + x[108] + x[125] + x[9]
   + x[129] + x[20] + x[167] + x[130] + x[150] + x[115] <= 21
 nod14: x[35] + x[53] + x[94] + x[66] + x[165] + x[6] + x[172] + 9 x[14]
   + x[7] + x[57] <= 9
 nod15: x[69] + x[153] + x[155] + x[6] + 14 x[15] + x[104] + x[147]
   + x[108] + x[145] + x[92] + x[128] + x[139] + x[107] + x[20] + x[23]
   <= 14
 nod144: x[152] + x[49] + x[29] + x[6] + 11 x[144] + x[90] + x[83] + x[141]
   + x[80] + x[34] + x[109] + x[95] <= 11
 nod159: x[69] + x[112] + x[61] + x[32] + x[105] + x[54] + x[10] + x[123]
   + x[146] + x[148] + x[6] + 19 x[159] + x[120] + x[124] + x[129] + x[128]
   + x[103] + x[46] + x[135] + x[98] <= 19
 nod44: x[162] + x[18] + x[156] + x[170] + x[49] + x[138] + x[114] + x[6]
   + 20 x[44] + x[127] + x[58] + x[111] + x[75] + x[17] + x[34] + x[19]
   + x[97] + x[169] + x[81] + x[99] + x[109] <= 20
 nod79: x[18] + x[174] + x[63] + x[65] + x[94] + x[149] + x[6] + 17 x[79]
   + x[120] + x[11] + x[113] + x[111] + x[129] + x[34] + x[81] + x[82]
   + x[163] + x[164] <= 17
 nod85: x[110] + x[112] + x[142] + x[32] + x[105] + x[54] + x[33] + x[155]
   + x[160] + x[157] + x[6] + x[140] + 22 x[85] + x[158] + x[11] + x[60]
   + x[70] + x[113] + x[117] + x[27] + x[48] + x[164] + x[41] <= 22
 nod90: x[96] + x[64] + x[84] + x[21] + x[165] + x[6] + x[144] + 15 x[90]
   + x[88] + x[78] + x[92] + x[128] + x[103] + x[46] + x[121] + x[115]
   <= 15
 nod143: x[162] + x[142] + x[40] + x[171] + x[22] + x[153] + x[94] + x[100]
   + x[6] + 16 x[143] + x[108] + x[113] + x[141] + x[129] + x[48] + x[163]
   + x[98] <= 16
 nod104: x[68] + x[86] + x[59] + x[171] + x[25] + x[151] + x[175] + x[52]
   + x[154] + x[6] + x[15] + 16 x[104] + x[31] + x[111] + x[103] + x[133]
   + x[99] <= 16
 nod120: x[18] + x[59] + x[101] + x[171] + x[152] + x[168] + x[155] + x[39]
   + x[77] + x[160] + x[146] + x[6] + x[159] + x[79] + 23 x[120] + x[70]
   + x[9] + x[24] + x[31] + x[141] + x[139] + x[89] + x[98] + x[115] <= 23
 nod7: x[61] + x[137] + x[174] + x[53] + x[106] + x[76] + x[66] + x[14]
   + 13 x[7] + x[62] + x[16] + x[88] + x[127] + x[158] <= 13
 nod62: x[105] + x[74] + x[137] + x[134] + x[52] + x[7] + 18 x[62] + x[158]
   + x[38] + x[125] + x[126] + x[111] + x[92] + x[102] + x[46] + x[19]
   + x[81] + x[150] + x[122] <= 18
 nod16: x[105] + x[151] + x[170] + x[155] + x[77] + x[66] + x[146] + x[7]
   + 13 x[16] + x[27] + x[75] + x[102] + x[103] + x[46] <= 13
 nod88: x[28] + x[25] + x[168] + x[94] + x[100] + x[43] + x[91] + x[66]
   + x[29] + x[146] + x[140] + x[90] + x[7] + 25 x[88] + x[127] + x[147]
   + x[145] + x[78] + x[103] + x[34] + x[133] + x[82] + x[121] + x[95]
   + x[163] + x[89] <= 25
 nod127: x[96] + x[61] + x[56] + x[134] + x[22] + x[168] + x[65] + x[39]
   + x[76] + x[148] + x[44] + x[7] + x[88] + 24 x[127] + x[113] + x[141]
   + x[124] + x[57] + x[23] + x[19] + x[97] + x[169] + x[89] + x[164]
   + x[41] <= 24
 nod158: x[162] + x[84] + x[53] + x[149] + x[49] + x[138] + x[29] + x[85]
   + x[7] + x[62] + 18 x[158] + x[31] + x[80] + x[128] + x[23] + x[132]
   + x[130] + x[163] + x[116] <= 18
 nod11: x[69] + x[8] + x[18] + x[110] + x[105] + x[136] + x[21] + x[170]
   + x[174] + x[175] + x[123] + x[79] + x[85] + 21 x[11] + x[147] + x[60]
   + x[70] + x[125] + x[27] + x[36] + x[75] + x[57] <= 21
 nod147: x[8] + x[61] + x[54] + x[174] + x[175] + x[15] + x[88] + x[11]
   + 17 x[147] + x[42] + x[80] + x[57] + x[48] + x[132] + x[167] + x[109]
   + x[130] + x[89] <= 17
 nod38: x[8] + x[142] + x[161] + x[45] + x[77] + x[172] + x[62] + 13 x[38]
   + x[125] + x[124] + x[75] + x[67] + x[48] + x[72] <= 13
 nod42: x[8] + x[171] + x[56] + x[174] + x[39] + x[73] + x[160] + x[123]
   + x[165] + x[147] + 17 x[42] + x[58] + x[57] + x[12] + x[67] + x[23]
   + x[95] + x[135] <= 17
 nod51: x[8] + x[25] + x[136] + x[21] + x[93] + x[119] + 11 x[51] + x[75]
   + x[97] + x[133] + x[109] + x[122] <= 11
 nod60: x[8] + x[110] + x[55] + x[10] + x[173] + x[45] + x[85] + x[11]
   + 11 x[60] + x[23] + x[46] + x[19] <= 11
 nod70: x[8] + x[84] + x[28] + x[32] + x[35] + x[131] + x[54] + x[22]
   + x[106] + x[119] + x[43] + x[45] + x[77] + x[85] + x[120] + x[11]
   + 21 x[70] + x[92] + x[139] + x[17] + x[34] + x[169] <= 21
 nod83: x[162] + x[8] + x[156] + x[170] + x[174] + x[149] + x[45] + x[49]
   + x[76] + x[91] + x[172] + x[144] + 21 x[83] + x[36] + x[57] + x[78]
   + x[97] + x[133] + x[167] + x[95] + x[150] + x[41] <= 21
 nod108: x[8] + x[35] + x[54] + x[136] + x[100] + x[39] + x[114] + x[148]
   + x[172] + x[140] + x[15] + x[143] + 18 x[108] + x[58] + x[111] + x[102]
   + x[103] + x[81] + x[116] <= 18
 nod113: x[64] + x[8] + x[112] + x[50] + x[25] + x[53] + x[77] + x[13]
   + x[79] + x[85] + x[143] + x[127] + 20 x[113] + x[117] + x[125] + x[111]
   + x[12] + x[102] + x[46] + x[19] + x[122] <= 20
 nod117: x[64] + x[8] + x[86] + x[136] + x[33] + x[55] + x[43] + x[45]
   + x[138] + x[123] + x[52] + x[85] + x[113] + 20 x[117] + x[24] + x[58]
   + x[80] + x[124] + x[46] + x[19] + x[150] <= 20
 nod125: x[8] + x[47] + x[171] + x[137] + x[94] + x[100] + x[155] + x[45]
   + x[140] + x[62] + x[11] + x[38] + x[113] + 16 x[125] + x[92] + x[34]
   + x[81] <= 16
 nod126: x[8] + x[131] + x[21] + x[123] + x[154] + x[157] + x[62]
   + 15 x[126] + x[9] + x[124] + x[57] + x[102] + x[48] + x[97] + x[109]
   + x[122] <= 15
 nod9: x[96] + x[18] + x[110] + x[171] + x[54] + x[151] + x[136] + x[174]
   + x[53] + x[10] + x[155] + x[49] + x[114] + x[13] + x[140] + x[120]
   + x[126] + 19 x[9] + x[24] + x[58] <= 19
 nod24: x[69] + x[137] + x[174] + x[93] + x[114] + x[52] + x[154] + x[120]
   + x[117] + x[9] + 15 x[24] + x[128] + x[72] + x[133] + x[95] + x[30]
   <= 15
 nod58: x[151] + x[63] + x[106] + x[43] + x[172] + x[44] + x[42] + x[108]
   + x[117] + x[9] + 15 x[58] + x[75] + x[17] + x[48] + x[26] + x[115]
   <= 15
 nod31: x[112] + x[86] + x[35] + x[137] + x[153] + x[63] + x[93] + x[10]
   + x[149] + x[160] + x[104] + x[120] + x[158] + 19 x[31] + x[20] + x[132]
   + x[82] + x[99] + x[30] + x[164] <= 19
 nod141: x[166] + x[105] + x[74] + x[152] + x[65] + x[161] + x[100] + x[10]
   + x[43] + x[91] + x[66] + x[13] + x[144] + x[143] + x[120] + x[127]
   + 27 x[141] + x[80] + x[124] + x[129] + x[107] + x[102] + x[34] + x[71]
   + x[19] + x[97] + x[89] + x[115] <= 27
 nod111: x[68] + x[166] + x[74] + x[10] + x[138] + x[66] + x[44] + x[79]
   + x[104] + x[62] + x[108] + x[113] + 18 x[111] + x[27] + x[75] + x[82]
   + x[30] + x[164] + x[41] <= 18
 nod80: x[110] + x[151] + x[152] + x[174] + x[93] + x[10] + x[43] + x[66]
   + x[172] + x[144] + x[158] + x[147] + x[117] + x[141] + 19 x[80] + x[57]
   + x[102] + x[121] + x[118] + x[116] <= 19
 nod145: x[59] + x[28] + x[40] + x[106] + x[10] + x[173] + x[73] + x[66]
   + x[15] + x[88] + 11 x[145] + x[41] <= 11
 nod27: x[171] + x[10] + x[149] + x[172] + x[85] + x[16] + x[11] + x[111]
   + 15 x[27] + x[57] + x[20] + x[19] + x[97] + x[99] + x[30] + x[164]
   <= 15
 nod124: x[96] + x[47] + x[40] + x[25] + x[151] + x[153] + x[53] + x[55]
   + x[10] + x[91] + x[165] + x[159] + x[127] + x[38] + x[117] + x[126]
   + x[141] + 19 x[124] + x[72] + x[130] <= 19
 nod36: x[21] + x[174] + x[161] + x[11] + x[83] + 10 x[36] + x[57] + x[46]
   + x[34] + x[97] + x[135] <= 10
 nod75: x[18] + x[56] + x[39] + x[52] + x[44] + x[16] + x[11] + x[38]
   + x[51] + x[58] + x[111] + 13 x[75] + x[135] + x[98] <= 13
 nod57: x[152] + x[161] + x[119] + x[73] + x[76] + x[14] + x[127] + x[11]
   + x[147] + x[42] + x[83] + x[126] + x[80] + x[27] + x[36] + 19 x[57]
   + x[128] + x[34] + x[71] + x[122] <= 19
 nod12: x[171] + x[156] + x[175] + x[100] + x[155] + x[160] + x[42]
   + x[113] + 10 x[12] + x[129] + x[78] <= 10
 nod129: x[33] + x[170] + x[161] + x[119] + x[37] + x[76] + x[140] + x[159]
   + x[79] + x[143] + x[141] + x[12] + 14 x[129] + x[78] + x[71] <= 14
 nod78: x[68] + x[110] + x[50] + x[28] + x[105] + x[54] + x[56] + x[33]
   + x[168] + x[170] + x[100] + x[155] + x[138] + x[90] + x[88] + x[83]
   + x[12] + x[129] + 19 x[78] + x[46] <= 19
 nod67: x[96] + x[110] + x[86] + x[101] + x[32] + x[74] + x[151] + x[152]
   + x[33] + x[168] + x[53] + x[55] + x[65] + x[161] + x[43] + x[45]
   + x[13] + x[148] + x[52] + x[38] + x[42] + 25 x[67] + x[48] + x[132]
   + x[71] + x[26] <= 25
 nod92: x[86] + x[54] + x[25] + x[22] + x[161] + x[13] + x[15] + x[90]
   + x[62] + x[70] + x[125] + 16 x[92] + x[17] + x[97] + x[82] + x[109]
   + x[115] <= 16
 nod128: x[96] + x[162] + x[61] + x[166] + x[136] + x[161] + x[37] + x[39]
   + x[148] + x[154] + x[172] + x[15] + x[159] + x[90] + x[158] + x[24]
   + x[57] + 20 x[128] + x[132] + x[97] + x[122] <= 20
 nod139: x[112] + x[59] + x[171] + x[153] + x[168] + x[63] + x[93] + x[49]
   + x[87] + x[165] + x[148] + x[15] + x[120] + x[70] + 19 x[139] + x[20]
   + x[102] + x[103] + x[46] + x[98] <= 19
 nod107: x[68] + x[110] + x[59] + x[137] + x[56] + x[39] + x[49] + x[87]
   + x[66] + x[15] + x[141] + 15 x[107] + x[102] + x[103] + x[17] + x[95]
   <= 15
 nod20: x[18] + x[25] + x[175] + x[55] + x[39] + x[43] + x[140] + x[15]
   + x[31] + x[27] + x[139] + 13 x[20] + x[169] + x[81] <= 13
 nod23: x[69] + x[61] + x[131] + x[53] + x[91] + x[66] + x[148] + x[172]
   + x[15] + x[127] + x[158] + x[42] + x[60] + 16 x[23] + x[34] + x[97]
   + x[121] <= 16
 nod102: x[59] + x[166] + x[134] + x[55] + x[119] + x[157] + x[62] + x[16]
   + x[108] + x[113] + x[126] + x[141] + x[80] + x[139] + x[107]
   + 15 x[102] <= 15
 nod103: x[142] + x[54] + x[25] + x[156] + x[168] + x[173] + x[155] + x[91]
   + x[148] + x[159] + x[90] + x[104] + x[16] + x[88] + x[108] + x[139]
   + x[107] + 23 x[103] + x[48] + x[133] + x[167] + x[99] + x[95] + x[89]
   <= 23
 nod46: x[68] + x[76] + x[160] + x[159] + x[90] + x[62] + x[16] + x[60]
   + x[113] + x[117] + x[36] + x[78] + x[139] + 14 x[46] + x[118] <= 14
 nod17: x[18] + x[47] + x[61] + x[32] + x[29] + x[148] + x[52] + x[154]
   + x[44] + x[70] + x[58] + x[92] + x[107] + 14 x[17] + x[48] <= 14
 nod48: x[64] + x[47] + x[131] + x[136] + x[156] + x[53] + x[65] + x[49]
   + x[87] + x[85] + x[143] + x[147] + x[38] + x[126] + x[58] + x[67]
   + x[103] + x[17] + 21 x[48] + x[71] + x[133] + x[30] <= 21
 nod132: x[96] + x[18] + x[142] + x[86] + x[174] + x[55] + x[119] + x[37]
   + x[66] + x[158] + x[147] + x[31] + x[67] + x[128] + 17 x[132] + x[89]
   + x[122] + x[118] <= 17
 nod34: x[69] + x[18] + x[131] + x[151] + x[152] + x[55] + x[65] + x[161]
   + x[155] + x[114] + x[144] + x[44] + x[79] + x[88] + x[70] + x[125]
   + x[141] + x[36] + x[57] + x[23] + 23 x[34] + x[167] + x[109] + x[118]
   <= 23
 nod71: x[18] + x[86] + x[61] + x[22] + x[76] + x[87] + x[141] + x[57]
   + x[129] + x[67] + x[48] + 13 x[71] + x[150] + x[115] <= 13
 nod19: x[68] + x[86] + x[35] + x[94] + x[49] + x[165] + x[44] + x[62]
   + x[127] + x[60] + x[113] + x[117] + x[141] + x[27] + 15 x[19] + x[97]
   <= 15
 nod97: x[64] + x[170] + x[173] + x[114] + x[172] + x[44] + x[127] + x[51]
   + x[83] + x[126] + x[141] + x[27] + x[36] + x[92] + x[128] + x[23]
   + x[19] + 21 x[97] + x[109] + x[30] + x[163] + x[115] <= 21
 nod169: x[105] + x[56] + x[152] + x[65] + x[138] + x[76] + x[87] + x[123]
   + x[146] + x[157] + x[44] + x[127] + x[70] + x[20] + 15 x[169] + x[118]
   <= 15
 nod81: x[64] + x[110] + x[161] + x[93] + x[149] + x[45] + x[49] + x[44]
   + x[79] + x[62] + x[108] + x[125] + x[20] + 17 x[81] + x[99] + x[109]
   + x[30] + x[116] <= 17
 nod72: x[64] + x[59] + x[40] + x[21] + x[55] + x[155] + x[66] + x[146]
   + x[38] + x[24] + x[124] + 12 x[72] + x[98] <= 12
 nod133: x[131] + x[151] + x[134] + x[21] + x[45] + x[104] + x[88] + x[51]
   + x[83] + x[24] + x[103] + x[48] + 13 x[133] + x[135] <= 13
 nod82: x[162] + x[68] + x[22] + x[65] + x[79] + x[88] + x[31] + x[111]
   + x[92] + 11 x[82] + x[150] + x[41] <= 11
 nod167: x[96] + x[112] + x[50] + x[61] + x[22] + x[156] + x[119] + x[149]
   + x[43] + x[140] + x[147] + x[83] + x[103] + x[34] + 14 x[167] <= 14
 nod99: x[112] + x[61] + x[22] + x[156] + x[174] + x[100] + x[37] + x[45]
   + x[73] + x[123] + x[44] + x[104] + x[31] + x[27] + x[103] + x[81]
   + 17 x[99] + x[89] <= 17
 nod109: x[112] + x[84] + x[101] + x[22] + x[53] + x[119] + x[155] + x[172]
   + x[144] + x[44] + x[147] + x[51] + x[126] + x[92] + x[34] + x[97]
   + x[81] + 22 x[109] + x[135] + x[26] + x[115] + x[41] + x[116] <= 22
 nod130: x[64] + x[56] + x[151] + x[22] + x[33] + x[114] + x[123] + x[140]
   + x[158] + x[147] + x[124] + 12 x[130] + x[26] <= 12
 nod121: x[151] + x[174] + x[157] + x[172] + x[90] + x[88] + x[80] + x[23]
   + 8 x[121] <= 8
 nod95: x[47] + x[86] + x[151] + x[134] + x[100] + x[114] + x[172] + x[144]
   + x[88] + x[42] + x[83] + x[24] + x[107] + x[103] + 16 x[95] + x[89]
   + x[26] <= 16
 nod30: x[50] + x[142] + x[28] + x[61] + x[171] + x[151] + x[119] + x[155]
   + x[87] + x[66] + x[24] + x[31] + x[111] + x[27] + x[48] + x[97] + x[81]
   + 20 x[30] + x[89] + x[150] + x[122] <= 20
 nod163: x[96] + x[112] + x[28] + x[32] + x[74] + x[25] + x[151] + x[55]
   + x[161] + x[94] + x[154] + x[79] + x[143] + x[88] + x[158] + x[97]
   + 17 x[163] + x[118] <= 17
 nod135: x[68] + x[47] + x[101] + x[105] + x[171] + x[131] + x[25] + x[175]
   + x[55] + x[63] + x[43] + x[45] + x[160] + x[165] + x[52] + x[159]
   + x[42] + x[36] + x[75] + x[133] + x[109] + 23 x[135] + x[115] + x[41]
   <= 23
 nod89: x[47] + x[142] + x[25] + x[153] + x[156] + x[33] + x[173] + x[37]
   + x[120] + x[88] + x[127] + x[147] + x[141] + x[103] + x[132] + x[99]
   + x[95] + x[30] + 18 x[89] <= 18
 nod26: x[28] + x[101] + x[105] + x[54] + x[137] + x[136] + x[156] + x[33]
   + x[168] + x[175] + x[119] + x[155] + x[49] + x[114] + x[66] + x[154]
   + x[58] + x[67] + x[109] + x[130] + x[95] + 23 x[26] + x[150] + x[122]
   <= 23
 nod150: x[59] + x[32] + x[105] + x[131] + x[119] + x[149] + x[45] + x[140]
   + x[62] + x[83] + x[117] + x[71] + x[82] + x[30] + x[26] + 17 x[150]
   + x[122] + x[98] <= 17
 nod122: x[61] + x[166] + x[171] + x[153] + x[174] + x[63] + x[161]
   + x[100] + x[77] + x[62] + x[51] + x[113] + x[126] + x[57] + x[128]
   + x[132] + x[30] + x[26] + x[150] + 19 x[122] <= 19
 nod164: x[142] + x[101] + x[161] + x[138] + x[87] + x[160] + x[66] + x[79]
   + x[85] + x[127] + x[31] + x[111] + x[27] + 14 x[164] + x[118] <= 14
 nod118: x[69] + x[84] + x[86] + x[43] + x[73] + x[80] + x[46] + x[132]
   + x[34] + x[169] + x[163] + x[164] + 13 x[118] + x[115] <= 13
 nod98: x[101] + x[40] + x[136] + x[173] + x[39] + x[138] + x[159] + x[143]
   + x[120] + x[75] + x[139] + x[72] + x[150] + 15 x[98] + x[115] + x[41]
   <= 15
 nod115: x[131] + x[94] + x[39] + x[140] + x[90] + x[120] + x[58] + x[141]
   + x[92] + x[71] + x[97] + x[109] + x[135] + x[118] + x[98] + 15 x[115]
   <= 15
 nod41: x[101] + x[105] + x[54] + x[152] + x[156] + x[174] + x[175] + x[66]
   + x[85] + x[127] + x[83] + x[111] + x[145] + x[82] + x[109] + x[135]
   + x[98] + 17 x[41] <= 17
 nod116: x[156] + x[53] + x[161] + x[93] + x[45] + x[49] + x[91] + x[52]
   + x[158] + x[108] + x[80] + x[81] + x[109] + 13 x[116] <= 13
Bounds
Binaries
 x[1] x[96] x[64] x[162] x[68] x[69] x[8] x[18] x[110] x[47] x[112] x[50]
 x[84] x[142] x[86] x[59] x[28] x[61] x[101] x[2] x[32] x[35] x[166] x[40]
 x[105] x[74] x[171] x[131] x[54] x[137] x[56] x[25] x[151] x[3] x[4]
 x[134] x[136] x[21] x[22] x[152] x[153] x[156] x[33] x[168] x[170] x[174]
 x[175] x[53] x[55] x[63] x[65] x[161] x[93] x[94] x[100] x[106] x[119]
 x[10] x[173] x[149] x[155] x[37] x[39] x[43] x[45] x[49] x[138] x[73]
 x[76] x[77] x[87] x[91] x[114] x[5] x[160] x[66] x[123] x[165] x[29] x[13]
 x[146] x[148] x[52] x[154] x[157] x[6] x[172] x[140] x[14] x[15] x[144]
 x[159] x[44] x[79] x[85] x[90] x[143] x[104] x[120] x[7] x[62] x[16] x[88]
 x[127] x[158] x[11] x[147] x[38] x[42] x[51] x[60] x[70] x[83] x[108]
 x[113] x[117] x[125] x[126] x[9] x[24] x[58] x[31] x[141] x[111] x[80]
 x[145] x[27] x[124] x[36] x[75] x[57] x[12] x[129] x[78] x[67] x[92]
 x[128] x[139] x[107] x[20] x[23] x[102] x[103] x[46] x[17] x[48] x[132]
 x[34] x[71] x[19] x[97] x[169] x[81] x[72] x[133] x[82] x[167] x[99]
 x[109] x[130] x[121] x[95] x[30] x[163] x[135] x[89] x[26] x[150] x[122]
 x[164] x[118] x[98] x[115] x[41] x[116]
End
